c description: Subset cardinality formula for fast_gnp_random_graph(6,6,0.8)
c generator: CNFgen (0.9.0)
c copyright: (C) 2012-2020 Massimo Lauria <massimo.lauria@uniroma1.it>
c url: https://massimolauria.net/cnfgen
c
p cnf 32 140
1 2 3 0
1 2 4 0
1 2 5 0
1 3 4 0
1 3 5 0
1 4 5 0
2 3 4 0
2 3 5 0
2 4 5 0
3 4 5 0
6 7 8 9 0
6 7 8 10 0
6 7 8 11 0
6 7 9 10 0
6 7 9 11 0
6 7 10 11 0
6 8 9 10 0
6 8 9 11 0
6 8 10 11 0
6 9 10 11 0
7 8 9 10 0
7 8 9 11 0
7 8 10 11 0
7 9 10 11 0
8 9 10 11 0
12 13 14 0
12 13 15 0
12 13 16 0
12 14 15 0
12 14 16 0
12 15 16 0
13 14 15 0
13 14 16 0
13 15 16 0
14 15 16 0
17 18 19 0
17 18 20 0
17 18 21 0
17 19 20 0
17 19 21 0
17 20 21 0
18 19 20 0
18 19 21 0
18 20 21 0
19 20 21 0
22 23 24 25 0
22 23 24 26 0
22 23 24 27 0
22 23 25 26 0
22 23 25 27 0
22 23 26 27 0
22 24 25 26 0
22 24 25 27 0
22 24 26 27 0
22 25 26 27 0
23 24 25 26 0
23 24 25 27 0
23 24 26 27 0
23 25 26 27 0
24 25 26 27 0
28 29 30 0
28 29 31 0
28 29 32 0
28 30 31 0
28 30 32 0
28 31 32 0
29 30 31 0
29 30 32 0
29 31 32 0
30 31 32 0
-1 -6 -12 0
-1 -6 -22 0
-1 -6 -28 0
-1 -12 -22 0
-1 -12 -28 0
-1 -22 -28 0
-6 -12 -22 0
-6 -12 -28 0
-6 -22 -28 0
-12 -22 -28 0
-2 -7 -13 0
-2 -7 -17 0
-2 -7 -23 0
-2 -13 -17 0
-2 -13 -23 0
-2 -17 -23 0
-7 -13 -17 0
-7 -13 -23 0
-7 -17 -23 0
-13 -17 -23 0
-8 -14 -18 0
-8 -14 -24 0
-8 -14 -29 0
-8 -18 -24 0
-8 -18 -29 0
-8 -24 -29 0
-14 -18 -24 0
-14 -18 -29 0
-14 -24 -29 0
-18 -24 -29 0
-3 -9 -15 -19 0
-3 -9 -15 -25 0
-3 -9 -15 -30 0
-3 -9 -19 -25 0
-3 -9 -19 -30 0
-3 -9 -25 -30 0
-3 -15 -19 -25 0
-3 -15 -19 -30 0
-3 -15 -25 -30 0
-3 -19 -25 -30 0
-9 -15 -19 -25 0
-9 -15 -19 -30 0
-9 -15 -25 -30 0
-9 -19 -25 -30 0
-15 -19 -25 -30 0
-4 -10 -16 -20 0
-4 -10 -16 -26 0
-4 -10 -16 -31 0
-4 -10 -20 -26 0
-4 -10 -20 -31 0
-4 -10 -26 -31 0
-4 -16 -20 -26 0
-4 -16 -20 -31 0
-4 -16 -26 -31 0
-4 -20 -26 -31 0
-10 -16 -20 -26 0
-10 -16 -20 -31 0
-10 -16 -26 -31 0
-10 -20 -26 -31 0
-16 -20 -26 -31 0
-5 -11 -21 0
-5 -11 -27 0
-5 -11 -32 0
-5 -21 -27 0
-5 -21 -32 0
-5 -27 -32 0
-11 -21 -27 0
-11 -21 -32 0
-11 -27 -32 0
-21 -27 -32 0